p wcnf 120 1500
9 -115 120 0
6 -114 -115 0
3 -113 117 0
8 -110 -118 0
5 -108 -117 0
8 -108 113 0
8 -107 -116 0
5 -107 -109 0
6 -107 111 0
10 -104 -120 0
4 -104 -109 0
2 -104 -107 0
7 -104 117 0
5 -103 -107 0
6 -103 -105 0
5 -102 -115 0
5 -102 -114 0
6 -101 118 0
5 -100 -115 0
5 -98 117 0
9 -98 120 0
7 -96 -119 0
4 -96 -105 0
7 -96 106 0
10 -96 115 0
5 -96 118 0
6 -94 96 0
6 -94 109 0
9 -94 116 0
5 -93 107 0
3 -93 113 0
8 -92 -117 0
10 -92 -112 0
5 -92 -100 0
6 -92 110 0
5 -92 111 0
3 -92 116 0
4 -91 92 0
9 -91 104 0
8 -91 105 0
4 -91 114 0
4 -90 111 0
9 -89 118 0
10 -88 119 0
7 -87 -106 0
6 -87 -100 0
5 -87 108 0
2 -87 120 0
2 -86 -117 0
9 -86 -109 0
6 -86 -98 0
10 -86 92 0
6 -86 93 0
9 -85 103 0
7 -84 -100 0
6 -83 -107 0
4 -83 89 0
3 -83 108 0
2 -83 112 0
3 -82 -104 0
8 -82 -99 0
4 -82 84 0
1 -82 86 0
8 -82 103 0
8 -81 -103 0
6 -81 -84 0
3 -81 -83 0
10 -80 94 0
10 -80 110 0
2 -80 113 0
8 -80 118 0
4 -79 -99 0
5 -79 95 0
8 -78 -105 0
4 -78 -92 0
2 -78 -82 0
3 -78 100 0
8 -78 115 0
3 -77 -101 0
4 -77 -95 0
7 -77 -91 0
8 -77 -85 0
4 -76 -113 0
3 -75 84 0
7 -74 -117 0
9 -74 -106 0
8 -74 76 0
9 -74 90 0
3 -73 -119 0
9 -73 104 0
2 -73 115 0
9 -72 -119 0
3 -72 -80 0
2 -71 -117 0
7 -71 -109 0
1 -71 -106 0
8 -71 -102 0
8 -71 -96 0
1 -71 -82 0
7 -71 100 0
9 -71 118 0
8 -71 120 0
10 -70 -119 0
4 -70 -100 0
6 -70 -99 0
4 -70 71 0
5 -70 75 0
8 -70 79 0
1 -70 87 0
7 -70 101 0
2 -70 105 0
7 -70 111 0
5 -69 70 0
5 -69 71 0
10 -68 -116 0
1 -68 -105 0
5 -68 -95 0
8 -68 112 0
10 -67 -111 0
6 -67 -100 0
7 -67 -93 0
2 -67 -86 0
6 -67 -77 0
9 -67 68 0
3 -67 87 0
2 -66 -105 0
10 -66 -79 0
10 -66 -69 0
10 -66 106 0
10 -66 111 0
7 -66 112 0
9 -65 -113 0
8 -65 -111 0
7 -65 -102 0
3 -65 -69 0
4 -65 67 0
9 -65 68 0
7 -65 79 0
2 -65 96 0
10 -65 107 0
4 -64 -102 0
4 -64 -89 0
7 -64 -83 0
8 -64 -77 0
8 -64 103 0
7 -64 119 0
8 -63 -102 0
3 -63 -98 0
5 -63 -97 0
8 -63 64 0
8 -63 66 0
2 -63 104 0
9 -63 111 0
4 -62 -106 0
1 -62 -89 0
2 -62 -74 0
5 -62 -68 0
10 -62 63 0
2 -62 79 0
5 -61 -70 0
9 -61 88 0
8 -61 93 0
4 -60 -112 0
8 -60 62 0
5 -60 63 0
7 -60 77 0
2 -60 85 0
5 -60 87 0
4 -60 90 0
3 -60 108 0
5 -59 -119 0
7 -59 -104 0
6 -59 -77 0
2 -59 -74 0
5 -59 -68 0
4 -59 70 0
8 -59 77 0
4 -59 88 0
6 -59 91 0
3 -58 -118 0
1 -58 -116 0
4 -58 -100 0
4 -58 -65 0
9 -58 108 0
6 -57 -118 0
4 -57 -100 0
2 -57 -88 0
2 -57 -65 0
3 -57 68 0
3 -57 73 0
6 -57 78 0
3 -57 108 0
1 -56 -96 0
9 -56 -94 0
9 -56 -91 0
6 -56 -74 0
6 -56 -71 0
1 -56 72 0
9 -56 93 0
9 -56 103 0
3 -56 118 0
4 -55 -116 0
6 -55 -105 0
8 -55 -102 0
5 -55 -99 0
2 -55 -73 0
3 -55 -67 0
4 -55 85 0
4 -55 114 0
7 -54 -103 0
5 -54 -83 0
5 -54 -72 0
1 -54 -69 0
8 -54 71 0
4 -54 88 0
7 -53 -108 0
2 -53 -60 0
5 -53 57 0
7 -53 89 0
4 -53 97 0
7 -53 99 0
3 -53 118 0
6 -52 -67 0
7 -52 53 0
2 -52 63 0
5 -52 111 0
2 -52 118 0
6 -51 -91 0
5 -51 61 0
2 -51 70 0
5 -51 82 0
7 -51 114 0
5 -50 -117 0
1 -50 -102 0
6 -50 -95 0
9 -50 -65 0
2 -50 -53 0
7 -49 -115 0
3 -49 -111 0
5 -49 -69 0
5 -49 69 0
7 -49 85 0
8 -49 89 0
5 -48 -89 0
5 -48 -82 0
2 -48 -67 0
2 -48 51 0
6 -48 52 0
6 -48 82 0
8 -48 101 0
9 -47 -108 0
3 -47 -90 0
10 -47 -89 0
5 -47 70 0
9 -47 84 0
2 -46 -89 0
9 -46 -81 0
1 -46 -53 0
7 -46 -47 0
4 -46 52 0
2 -46 77 0
2 -45 -113 0
10 -45 -99 0
6 -45 -91 0
3 -45 -83 0
6 -45 -71 0
5 -45 56 0
4 -45 86 0
3 -45 111 0
7 -44 -105 0
8 -44 -97 0
6 -44 -60 0
4 -44 49 0
6 -44 90 0
1 -44 96 0
8 -44 110 0
8 -43 -99 0
2 -43 -76 0
4 -43 -49 0
4 -43 49 0
9 -43 76 0
3 -43 80 0
6 -43 84 0
9 -43 100 0
7 -42 -118 0
4 -42 -100 0
10 -42 -99 0
6 -42 -63 0
5 -42 -47 0
7 -42 49 0
9 -42 66 0
6 -42 70 0
8 -42 80 0
8 -42 85 0
1 -42 98 0
1 -42 113 0
4 -41 -113 0
5 -41 -97 0
4 -41 -86 0
6 -41 -68 0
2 -41 -62 0
2 -41 76 0
2 -41 94 0
5 -41 106 0
7 -40 -116 0
2 -40 -105 0
3 -40 -78 0
4 -40 -62 0
3 -40 70 0
6 -40 78 0
7 -40 88 0
3 -40 101 0
8 -39 -112 0
3 -39 -111 0
2 -39 -98 0
5 -39 -61 0
6 -39 78 0
2 -39 111 0
1 -38 -94 0
9 -38 -85 0
7 -38 -77 0
9 -38 -46 0
5 -38 40 0
6 -38 43 0
7 -38 71 0
5 -38 102 0
6 -37 -106 0
1 -37 -81 0
10 -37 54 0
9 -37 59 0
6 -37 77 0
2 -37 80 0
10 -37 110 0
7 -37 114 0
5 -36 -119 0
6 -36 -66 0
8 -36 -55 0
7 -36 -44 0
10 -36 55 0
2 -36 107 0
3 -36 109 0
7 -36 118 0
3 -35 -111 0
1 -35 47 0
8 -35 66 0
4 -35 109 0
6 -35 117 0
4 -34 -80 0
4 -34 -61 0
6 -34 -53 0
4 -34 -49 0
2 -34 -45 0
5 -34 59 0
8 -34 70 0
7 -34 82 0
2 -33 -92 0
3 -33 -85 0
3 -33 -78 0
2 -33 -77 0
3 -33 -72 0
2 -33 57 0
7 -33 96 0
3 -33 112 0
1 -32 -115 0
4 -32 -81 0
8 -32 -74 0
7 -32 -70 0
2 -32 -64 0
5 -32 -56 0
7 -32 -34 0
2 -32 39 0
7 -32 46 0
3 -32 66 0
5 -32 70 0
7 -32 79 0
2 -32 95 0
7 -32 97 0
3 -32 99 0
5 -31 -109 0
2 -31 -94 0
8 -31 -67 0
8 -31 -53 0
2 -31 -37 0
3 -31 -34 0
6 -31 109 0
8 -30 -87 0
4 -30 41 0
8 -30 109 0
10 -29 -117 0
5 -29 -84 0
10 -29 -83 0
2 -29 -71 0
2 -29 -59 0
3 -29 -47 0
2 -29 81 0
5 -29 116 0
1 -28 -106 0
8 -28 -80 0
6 -28 -77 0
5 -28 -75 0
5 -28 -59 0
7 -28 -57 0
2 -28 -39 0
7 -28 44 0
2 -28 62 0
8 -28 63 0
8 -28 64 0
8 -28 72 0
9 -28 91 0
3 -28 97 0
9 -28 107 0
7 -27 -113 0
10 -27 -94 0
1 -27 -84 0
9 -27 -57 0
6 -27 -56 0
8 -27 -55 0
3 -27 -49 0
4 -27 -35 0
8 -27 -34 0
7 -27 28 0
3 -27 35 0
9 -27 44 0
8 -27 71 0
6 -27 72 0
10 -26 -113 0
3 -26 -112 0
6 -26 -74 0
8 -26 -68 0
8 -26 -52 0
10 -26 -31 0
2 -26 84 0
5 -25 -115 0
1 -25 -103 0
8 -25 -92 0
6 -25 -91 0
8 -25 -86 0
6 -25 -67 0
4 -25 -33 0
7 -25 -28 0
8 -25 81 0
3 -25 90 0
5 -24 -119 0
8 -24 -105 0
3 -24 -103 0
3 -24 -100 0
3 -24 -96 0
1 -24 -72 0
5 -24 -43 0
6 -24 -36 0
8 -24 27 0
1 -24 31 0
8 -24 36 0
7 -24 38 0
8 -24 55 0
4 -24 95 0
7 -24 98 0
1 -24 102 0
9 -24 109 0
5 -24 117 0
8 -23 -115 0
8 -23 -109 0
6 -23 -107 0
3 -23 -78 0
9 -23 -69 0
5 -23 -59 0
8 -23 -49 0
7 -23 25 0
10 -23 34 0
2 -23 35 0
4 -23 43 0
8 -23 62 0
4 -23 75 0
8 -23 94 0
5 -23 100 0
6 -22 -119 0
1 -22 -106 0
8 -22 -98 0
6 -22 -49 0
5 -22 -43 0
4 -22 -28 0
4 -22 27 0
5 -22 40 0
2 -22 70 0
1 -22 80 0
3 -22 98 0
5 -22 113 0
7 -21 -103 0
4 -21 -93 0
4 -21 -85 0
2 -21 -83 0
1 -21 -69 0
2 -21 -55 0
7 -21 -23 0
3 -21 24 0
10 -21 39 0
2 -21 62 0
1 -20 -119 0
7 -20 -77 0
2 -20 -69 0
2 -20 -59 0
1 -20 -35 0
8 -20 33 0
5 -20 40 0
8 -20 79 0
4 -20 114 0
1 -20 115 0
8 -19 -117 0
1 -19 -73 0
6 -19 -67 0
3 -19 -37 0
4 -19 -25 0
9 -19 62 0
7 -19 70 0
5 -19 88 0
10 -18 -111 0
10 -18 -90 0
9 -18 -67 0
7 -18 21 0
3 -18 40 0
2 -18 50 0
8 -18 84 0
4 -17 -116 0
3 -17 -101 0
6 -17 -71 0
6 -17 -57 0
3 -17 -38 0
7 -17 -30 0
7 -17 -29 0
9 -17 55 0
7 -17 59 0
8 -17 82 0
9 -17 84 0
6 -17 107 0
3 -16 -113 0
7 -16 -88 0
8 -16 -73 0
3 -16 21 0
6 -16 26 0
8 -16 35 0
8 -16 37 0
8 -16 69 0
2 -16 96 0
8 -16 99 0
5 -16 105 0
6 -16 117 0
8 -15 -73 0
5 -15 -55 0
5 -15 -51 0
5 -15 -41 0
7 -15 -21 0
6 -15 18 0
4 -15 29 0
9 -15 50 0
8 -14 -110 0
9 -14 -69 0
5 -14 32 0
2 -14 39 0
5 -14 40 0
2 -14 56 0
10 -14 66 0
3 -14 83 0
9 -14 85 0
9 -14 102 0
7 -13 -113 0
2 -13 -103 0
7 -13 -89 0
6 -13 -39 0
5 -13 -31 0
2 -13 27 0
4 -13 34 0
3 -13 42 0
9 -13 72 0
5 -13 112 0
10 -12 -112 0
4 -12 -78 0
1 -12 -69 0
8 -12 -42 0
7 -12 -40 0
5 -12 -14 0
3 -12 25 0
4 -12 30 0
9 -12 96 0
5 -11 -109 0
3 -11 -86 0
8 -11 -81 0
4 -11 -79 0
8 -11 -69 0
8 -11 -45 0
8 -11 -23 0
9 -11 -17 0
8 -11 44 0
1 -11 45 0
8 -11 46 0
7 -11 97 0
7 -11 98 0
9 -11 101 0
4 -11 113 0
3 -10 -115 0
3 -10 -103 0
5 -10 -100 0
6 -10 -87 0
5 -10 -80 0
4 -10 -76 0
1 -10 -75 0
5 -10 -70 0
7 -10 -65 0
1 -10 -54 0
3 -10 -24 0
4 -10 30 0
5 -10 34 0
5 -10 39 0
7 -10 69 0
4 -10 81 0
9 -10 84 0
10 -10 103 0
2 -10 114 0
3 -9 -102 0
8 -9 -82 0
9 -9 -79 0
2 -9 -21 0
6 -9 41 0
7 -9 44 0
2 -9 103 0
4 -8 -107 0
4 -8 -105 0
8 -8 -103 0
3 -8 -102 0
7 -8 -66 0
1 -8 -51 0
6 -8 -39 0
2 -8 -38 0
6 -8 -10 0
1 -8 46 0
5 -8 68 0
6 -8 73 0
6 -8 81 0
2 -8 86 0
6 -7 -110 0
8 -7 -104 0
5 -7 -96 0
1 -7 -84 0
2 -7 -58 0
2 -7 -41 0
4 -7 8 0
2 -7 43 0
2 -7 48 0
5 -7 61 0
4 -7 79 0
9 -6 -94 0
5 -6 -76 0
5 -6 -27 0
5 -6 15 0
2 -6 26 0
5 -6 40 0
9 -6 41 0
5 -6 67 0
3 -6 90 0
2 -5 -120 0
2 -5 -103 0
3 -5 -90 0
6 -5 -89 0
3 -5 -81 0
8 -5 -58 0
7 -5 -43 0
7 -5 -36 0
4 -5 -26 0
2 -5 -9 0
8 -5 49 0
10 -5 53 0
9 -5 86 0
3 -5 102 0
10 -5 116 0
1 -4 -74 0
4 -4 -21 0
4 -4 30 0
2 -4 43 0
5 -4 72 0
8 -4 87 0
5 -4 91 0
4 -4 109 0
3 -4 110 0
9 -3 -94 0
9 -3 -90 0
4 -3 -55 0
4 -3 -29 0
7 -3 -19 0
8 -3 -9 0
6 -3 44 0
8 -3 64 0
9 -3 76 0
8 -3 85 0
4 -3 87 0
2 -3 97 0
7 -3 108 0
10 -2 -112 0
8 -2 -88 0
1 -2 -15 0
2 -2 -4 0
6 -2 24 0
10 -2 25 0
10 -2 38 0
8 -2 53 0
9 -2 54 0
10 -2 60 0
2 -2 69 0
3 -2 95 0
2 -2 96 0
7 -2 101 0
2 -2 117 0
6 -1 -108 0
10 -1 -80 0
3 -1 -20 0
4 -1 38 0
8 -1 42 0
6 -1 62 0
7 -1 79 0
5 -1 87 0
4 -1 98 0
3 -1 104 0
3 -1 116 0
2 1 -113 0
1 1 -102 0
6 1 -73 0
3 1 -65 0
7 1 -53 0
6 1 20 0
1 1 40 0
7 1 49 0
7 1 89 0
6 2 -117 0
7 2 -94 0
7 2 -87 0
4 2 -75 0
6 2 -7 0
7 2 5 0
5 2 16 0
8 2 28 0
7 2 29 0
2 2 40 0
9 2 68 0
3 2 69 0
1 2 82 0
2 2 93 0
7 2 117 0
9 2 118 0
7 3 -117 0
4 3 -73 0
4 3 -61 0
1 3 -23 0
6 3 10 0
6 3 14 0
2 3 42 0
6 3 68 0
3 3 78 0
5 3 96 0
3 3 97 0
8 4 -101 0
5 4 -64 0
9 4 -54 0
5 4 -38 0
10 4 -30 0
5 4 -9 0
2 4 12 0
3 4 14 0
1 4 36 0
7 4 58 0
7 4 70 0
9 4 73 0
5 4 76 0
8 4 94 0
8 5 -111 0
7 5 -92 0
8 5 -87 0
9 5 -75 0
4 5 41 0
7 5 63 0
6 5 70 0
6 5 90 0
1 5 120 0
7 6 -116 0
2 6 -113 0
7 6 -110 0
8 6 -98 0
7 6 -97 0
9 6 -83 0
3 6 -71 0
9 6 -52 0
7 6 -38 0
6 6 -34 0
8 6 -30 0
2 6 -22 0
6 6 -9 0
3 6 12 0
3 6 13 0
9 6 14 0
4 6 75 0
10 6 78 0
6 6 94 0
2 6 103 0
4 6 109 0
4 6 116 0
9 7 -115 0
1 7 -57 0
2 7 -40 0
8 7 -38 0
4 7 -34 0
8 7 10 0
4 7 20 0
9 7 34 0
8 7 42 0
10 7 55 0
2 7 63 0
5 8 -109 0
8 8 -96 0
8 8 -94 0
4 8 -68 0
9 8 -10 0
7 8 9 0
10 8 11 0
6 8 15 0
5 8 16 0
2 8 28 0
2 8 33 0
8 8 53 0
4 8 106 0
9 9 -104 0
1 9 -78 0
3 9 -63 0
5 9 -55 0
2 9 -47 0
7 9 21 0
8 9 22 0
1 9 36 0
7 9 89 0
9 9 117 0
8 10 -116 0
1 10 -79 0
7 10 -44 0
2 10 -34 0
10 10 -20 0
6 10 -16 0
1 10 11 0
1 10 12 0
10 10 44 0
8 10 50 0
8 10 70 0
4 10 72 0
7 11 -79 0
6 11 -61 0
4 11 -37 0
3 11 26 0
1 11 47 0
4 11 50 0
3 11 53 0
8 11 61 0
7 11 94 0
3 11 98 0
8 11 99 0
10 11 107 0
7 12 -92 0
10 12 -38 0
7 12 -27 0
5 12 -15 0
10 12 19 0
4 12 45 0
4 12 91 0
8 12 102 0
4 12 107 0
2 12 118 0
8 13 -113 0
4 13 -95 0
7 13 -82 0
8 13 -80 0
4 13 -69 0
7 13 -59 0
6 13 -24 0
2 13 14 0
9 13 18 0
3 13 29 0
7 13 40 0
3 13 50 0
5 13 56 0
8 14 -100 0
6 14 -98 0
8 14 -91 0
6 14 -88 0
4 14 -81 0
9 14 -57 0
4 14 -42 0
4 14 -37 0
7 14 -28 0
4 14 15 0
9 14 21 0
2 14 39 0
4 14 109 0
3 14 120 0
5 15 -78 0
1 15 -75 0
6 15 -64 0
6 15 -43 0
9 15 -35 0
8 15 -21 0
3 15 69 0
7 15 109 0
2 15 112 0
8 15 119 0
3 16 -99 0
4 16 -94 0
8 16 -93 0
6 16 -80 0
1 16 -49 0
10 16 -32 0
10 16 -25 0
8 16 37 0
6 16 39 0
8 16 56 0
3 16 62 0
9 16 68 0
7 16 83 0
6 16 107 0
3 16 111 0
4 17 -86 0
9 17 -75 0
2 17 -51 0
4 17 -21 0
3 17 -20 0
4 17 29 0
9 17 43 0
3 17 67 0
8 18 -120 0
5 18 -101 0
2 18 -80 0
7 18 -75 0
6 18 -68 0
8 18 -39 0
8 18 -33 0
5 18 -30 0
1 18 -24 0
2 18 22 0
2 18 61 0
6 18 80 0
2 18 83 0
2 18 120 0
6 19 -95 0
8 19 -89 0
7 19 -65 0
4 19 -29 0
2 19 51 0
6 19 62 0
10 19 72 0
7 19 88 0
8 19 100 0
3 19 117 0
6 20 -109 0
9 20 -98 0
7 20 -79 0
8 20 -74 0
2 20 -73 0
5 20 -57 0
10 20 -51 0
10 20 -39 0
9 20 -38 0
2 20 -35 0
6 20 -30 0
5 20 37 0
9 20 43 0
5 20 95 0
9 20 112 0
9 20 116 0
5 21 -59 0
1 21 25 0
5 21 31 0
6 21 42 0
3 21 51 0
10 21 58 0
5 21 94 0
9 21 95 0
3 21 105 0
5 21 109 0
5 21 111 0
3 22 -118 0
2 22 -95 0
3 22 -86 0
5 22 -83 0
7 22 -75 0
2 22 -37 0
2 22 -35 0
5 22 -33 0
3 22 -25 0
6 22 41 0
5 22 76 0
3 22 102 0
5 23 -119 0
5 23 -106 0
8 23 -103 0
10 23 -100 0
4 23 -82 0
3 23 -49 0
9 23 -38 0
2 23 29 0
7 23 83 0
9 23 93 0
6 23 98 0
4 24 -78 0
2 24 -72 0
6 24 -38 0
8 24 35 0
10 24 43 0
8 24 45 0
3 24 64 0
5 24 97 0
10 24 119 0
4 25 -110 0
7 25 -103 0
5 25 -55 0
1 25 27 0
8 25 38 0
6 25 48 0
5 25 79 0
1 25 88 0
2 26 -81 0
8 26 -62 0
3 26 -48 0
6 26 -46 0
4 26 -42 0
1 26 59 0
6 26 89 0
7 26 91 0
3 27 -113 0
4 27 -101 0
8 27 -71 0
10 27 -68 0
4 27 -67 0
4 27 -54 0
3 27 -34 0
5 27 30 0
9 27 99 0
10 28 -115 0
4 28 -73 0
7 28 -42 0
3 28 39 0
8 28 57 0
7 28 101 0
6 29 -106 0
5 29 -105 0
1 29 -92 0
6 29 -65 0
3 29 -60 0
6 29 -48 0
10 29 65 0
3 29 68 0
7 29 69 0
8 29 72 0
5 29 73 0
3 29 81 0
2 29 88 0
6 29 95 0
7 30 -92 0
8 30 -44 0
8 30 -36 0
2 30 56 0
6 30 75 0
7 30 91 0
4 31 -79 0
9 31 -45 0
10 31 34 0
8 31 38 0
8 31 40 0
10 31 42 0
2 31 51 0
5 31 56 0
3 31 82 0
10 32 -118 0
1 32 -83 0
8 32 -42 0
5 32 -38 0
2 32 -36 0
4 32 43 0
8 32 85 0
7 33 -89 0
4 33 -77 0
1 33 64 0
3 33 91 0
2 34 -110 0
6 34 -87 0
5 34 54 0
3 34 83 0
1 34 88 0
2 34 89 0
10 34 95 0
8 34 107 0
3 35 -114 0
6 35 -84 0
6 35 -59 0
6 35 -56 0
4 35 -51 0
5 35 61 0
4 35 99 0
2 35 110 0
5 36 -110 0
6 36 -105 0
6 36 -99 0
7 36 -51 0
5 36 45 0
6 36 53 0
4 36 85 0
10 36 118 0
7 37 -108 0
7 37 -103 0
8 37 -100 0
3 37 -95 0
10 37 -81 0
8 37 -72 0
6 37 65 0
2 37 80 0
3 38 -116 0
9 38 -97 0
4 38 -81 0
3 38 -50 0
2 38 -45 0
4 38 42 0
1 38 44 0
3 38 56 0
9 38 86 0
6 38 87 0
8 38 94 0
3 38 113 0
1 39 -110 0
2 39 -106 0
4 39 -83 0
5 39 65 0
7 39 80 0
9 40 -119 0
2 40 -115 0
3 40 -112 0
5 40 -85 0
6 40 -83 0
2 40 -74 0
1 40 54 0
3 40 59 0
9 40 66 0
4 40 92 0
3 40 101 0
7 40 118 0
8 41 -117 0
4 41 -74 0
9 41 -68 0
8 41 -66 0
7 41 -62 0
2 41 -54 0
8 41 54 0
1 41 62 0
3 41 81 0
1 41 97 0
9 41 98 0
8 41 116 0
9 41 119 0
2 42 -100 0
8 42 -79 0
1 42 -68 0
5 42 80 0
4 42 95 0
7 42 101 0
4 43 -95 0
5 43 70 0
9 43 77 0
7 43 88 0
10 43 102 0
1 44 -94 0
8 44 -90 0
3 44 -74 0
9 44 -72 0
1 44 46 0
4 44 50 0
6 44 56 0
8 44 94 0
7 44 103 0
5 44 108 0
6 44 114 0
4 45 -120 0
6 45 -113 0
4 45 -89 0
5 45 -69 0
8 45 78 0
5 45 90 0
4 45 118 0
6 46 -92 0
3 46 -83 0
4 46 -68 0
4 46 -65 0
4 46 -59 0
8 46 47 0
7 46 56 0
1 46 57 0
2 46 75 0
1 47 -98 0
9 47 -97 0
8 47 -94 0
1 47 -90 0
9 47 50 0
6 47 60 0
3 47 86 0
9 47 96 0
6 47 106 0
6 47 108 0
5 47 120 0
4 48 -113 0
3 48 -66 0
8 48 54 0
9 48 70 0
7 48 79 0
4 48 104 0
3 48 114 0
1 48 117 0
2 49 -75 0
7 49 62 0
4 49 66 0
7 49 80 0
9 49 87 0
8 49 90 0
10 50 -109 0
3 50 -68 0
6 50 -65 0
7 50 -60 0
3 50 -53 0
7 50 105 0
7 51 -118 0
2 51 -111 0
5 51 -108 0
7 51 -78 0
2 51 -60 0
10 51 53 0
9 51 61 0
9 51 92 0
5 51 97 0
5 51 118 0
4 52 -120 0
8 52 -110 0
7 52 -106 0
2 52 -89 0
7 52 89 0
4 53 -110 0
6 53 -103 0
10 53 -84 0
5 53 -79 0
7 53 60 0
6 53 66 0
8 53 73 0
4 53 95 0
6 53 102 0
5 53 110 0
4 54 -120 0
8 54 -114 0
1 54 -100 0
10 54 -74 0
10 54 -55 0
7 54 58 0
7 54 79 0
2 54 97 0
2 54 101 0
4 55 -114 0
3 55 -82 0
1 55 -68 0
3 55 -63 0
2 55 -61 0
6 55 75 0
7 55 105 0
5 56 -119 0
4 56 -116 0
4 56 -108 0
6 56 -106 0
1 56 -105 0
7 56 -104 0
2 56 -103 0
1 56 -90 0
2 56 -69 0
8 56 -62 0
7 56 -57 0
8 56 68 0
3 56 78 0
2 56 83 0
4 56 98 0
6 57 -107 0
9 57 60 0
4 57 62 0
5 57 64 0
9 57 66 0
10 57 76 0
2 57 105 0
1 58 -98 0
2 58 -96 0
5 58 -94 0
3 58 -93 0
2 58 69 0
6 58 92 0
4 58 104 0
7 58 107 0
3 59 -104 0
8 59 -95 0
10 59 -73 0
6 59 -69 0
5 59 70 0
1 59 82 0
3 60 -109 0
6 60 77 0
1 60 83 0
4 60 101 0
4 60 107 0
7 60 116 0
2 61 -119 0
6 61 -110 0
8 61 74 0
5 61 106 0
1 62 -103 0
8 62 -102 0
8 62 -82 0
6 62 -77 0
7 62 85 0
8 62 93 0
7 62 94 0
7 62 97 0
8 62 98 0
1 63 -92 0
9 63 -83 0
9 63 -64 0
7 63 86 0
3 63 88 0
6 63 120 0
9 64 -72 0
1 64 -69 0
5 64 73 0
5 65 -114 0
5 65 -92 0
6 65 -89 0
6 65 74 0
10 65 78 0
6 65 110 0
9 66 -114 0
4 66 -110 0
3 66 -101 0
1 66 -100 0
9 66 -70 0
1 66 110 0
5 67 -114 0
9 67 -111 0
8 67 -93 0
3 67 100 0
5 68 -76 0
4 68 119 0
9 69 -119 0
1 69 70 0
1 69 99 0
7 69 110 0
2 69 115 0
9 70 -115 0
6 70 -105 0
8 70 -90 0
3 70 -79 0
2 70 -76 0
6 70 71 0
3 70 74 0
6 70 90 0
10 70 111 0
7 70 120 0
2 71 -99 0
6 71 -88 0
7 71 87 0
7 71 101 0
5 71 104 0
10 71 106 0
9 71 119 0
6 72 -99 0
9 72 79 0
9 72 89 0
10 72 104 0
8 72 114 0
6 72 116 0
2 72 117 0
2 73 -117 0
10 73 -87 0
1 73 95 0
3 73 102 0
10 73 107 0
8 74 -91 0
3 74 102 0
9 74 104 0
4 75 -120 0
10 75 -101 0
2 75 -79 0
5 75 80 0
6 75 86 0
4 75 96 0
2 76 -115 0
6 76 -111 0
10 76 -109 0
3 76 92 0
2 77 -120 0
7 77 -117 0
9 77 -92 0
7 77 -91 0
7 77 103 0
7 77 107 0
2 77 113 0
5 77 116 0
6 77 118 0
2 78 -117 0
3 79 -92 0
2 79 95 0
3 79 120 0
4 80 -107 0
2 80 -94 0
3 80 -87 0
6 80 119 0
2 81 -110 0
10 81 -109 0
8 81 -99 0
1 81 -97 0
4 81 85 0
8 81 106 0
2 82 -105 0
8 82 -99 0
4 82 -86 0
5 82 90 0
9 82 98 0
9 83 -112 0
5 83 -99 0
1 83 119 0
1 84 -120 0
1 84 -118 0
9 84 -105 0
7 84 -103 0
7 84 87 0
6 84 100 0
8 84 102 0
2 84 104 0
2 84 109 0
9 85 100 0
4 85 118 0
3 86 -116 0
2 86 -98 0
7 86 102 0
4 86 119 0
4 87 -119 0
2 87 103 0
5 87 109 0
4 88 -110 0
9 88 118 0
6 89 -114 0
7 89 -112 0
7 89 -107 0
7 89 96 0
5 90 -120 0
1 90 -113 0
2 90 -101 0
4 90 -95 0
9 91 -102 0
5 91 -100 0
4 91 119 0
9 92 -119 0
6 92 -113 0
3 92 -99 0
6 92 112 0
2 92 117 0
8 93 -109 0
4 93 -100 0
3 93 99 0
8 93 103 0
3 94 -107 0
6 94 -100 0
2 94 100 0
4 94 103 0
3 94 111 0
5 94 115 0
8 95 -113 0
4 95 -99 0
9 95 102 0
2 95 110 0
4 95 112 0
4 96 -110 0
8 96 107 0
10 97 -109 0
1 97 -99 0
4 98 -100 0
1 98 102 0
2 98 119 0
7 98 120 0
9 99 -112 0
6 100 -110 0
10 100 -101 0
8 101 120 0
2 103 -119 0
2 103 -110 0
4 104 -108 0
3 107 110 0
9 108 -110 0
7 109 115 0
5 111 -119 0
7 113 117 0
10 114 116 0
